[Vehicles]
1 20 1
2 19 1
3 19 0
4 18 0

[Requests]
2 1
3 2
4 1
5 2
6 1
7 1
8 1
9 2
10 2
11 1
12 1

[Fixed Lines]
24 26 30 60 90 120 150 180 210 240 270 300 330 360 390 420 450 480 510 540 570 |
26 24 30 60 90 120 150 180 210 240 270 300 330 360 390 420 450 480 510 540 570 |
25 26 30 60 90 120 150 180 210 240 270 300 330 360 390 420 450 480 510 540 570 |
26 25 30 60 90 120 150 180 210 240 270 300 330 360 390 420 450 480 510 540 570 |
24 25 30 60 90 120 150 180 210 240 270 300 330 360 390 420 450 480 510 540 570 |
25 24 30 60 90 120 150 180 210 240 270 300 330 360 390 420 450 480 510 540 570 |

[Nodes]
0 0 600 0
1 0 600 0
2 243 288 3
3 47 103 1
4 15 44 2
5 167 201 2
6 0 54 3
7 103 149 3
8 263 307 2
9 230 288 3
10 189 251 2
11 102 149 3
12 311 390 3
13 399 432 1
14 340 378 2
15 497 573 3
16 430 479 3
17 181 241 2
18 320 370 3
19 400 448 3
20 301 348 1
21 372 438 1
22 419 480 3
23 389 467 2
24 0 600 2
25 0 600 2
26 0 600 2

[Positions]
60 100
140 100
107 106
158 92
124 105
26 75
119 99
129 113
98 114
111 105
27 74
24 44
129 123
34 46
45 44
197 113
178 89
22 69
3 60
48 67
81 129
153 125
188 107
184 118
30 50
100 120
170 110
